
Gurobi 9.0.3 (win64) logging started Sun Jan  2 16:23:06 2022

Changed value of parameter LogFile to Results/sslp2_40_50_200_var_BendersBnC.log
   Prev:   Default: 
Changed value of parameter Heuristics to 0.0
   Prev: 0.05  Min: 0.0  Max: 1.0  Default: 0.05
Changed value of parameter lazyConstraints to 1
   Prev: 0  Min: 0  Max: 1  Default: 0
Changed value of parameter timeLimit to 7169.786019325256
   Prev: inf  Min: 0.0  Max: inf  Default: inf
Gurobi Optimizer version 9.0.3 build v9.0.3rc0 (win64)
Optimize a model with 3526 rows, 280 columns and 198990 nonzeros
Model fingerprint: 0xdfac2849
Variable types: 240 continuous, 40 integer (40 binary)
Coefficient statistics:
  Matrix range     [1e-13, 5e+05]
  Objective range  [5e-03, 4e+01]
  Bounds range     [1e+00, 1e+00]
  RHS range        [4e-15, 2e+04]
Warning: Model contains large matrix coefficient range
         Consider reformulating model or setting NumericFocus parameter
         to avoid numerical issues.
Presolve added 0 rows and 38 columns
Presolve removed 743 rows and 0 columns
Presolve time: 0.15s
Presolved: 2783 rows, 318 columns, 109547 nonzeros
Variable types: 277 continuous, 41 integer (40 binary)

Root relaxation: objective -5.809839e+02, 822 iterations, 0.25 seconds

    Nodes    |    Current Node    |     Objective Bounds      |     Work
 Expl Unexpl |  Obj  Depth IntInf | Incumbent    BestBd   Gap | It/Node Time

     0     0 -580.98387    0   32          - -580.98387      -     -    0s
     0     0 -579.44947    0   27          - -579.44947      -     -    0s
     0     0 -579.21394    0   27          - -579.21394      -     -    0s
     0     0 -579.15920    0   28          - -579.15920      -     -    0s
     0     0 -579.14158    0   28          - -579.14158      -     -    0s
     0     0 -579.13871    0   29          - -579.13871      -     -    1s
     0     0 -579.13771    0   28          - -579.13771      -     -    1s
     0     0 -579.13741    0   28          - -579.13741      -     -    1s
     0     0 -579.13714    0   28          - -579.13714      -     -    1s
     0     0 -579.13714    0   28          - -579.13714      -     -    1s
     0     0 -578.63481    0   28          - -578.63481      -     -    1s
     0     0 -578.45018    0   27          - -578.45018      -     -    1s
     0     0 -578.34140    0   28          - -578.34140      -     -    1s
     0     0 -578.17346    0   26          - -578.17346      -     -    1s
     0     0 -578.09609    0   28          - -578.09609      -     -    1s
     0     0 -578.03794    0   27          - -578.03794      -     -    1s
     0     0 -577.99826    0   27          - -577.99826      -     -    1s
     0     0 -577.96586    0   29          - -577.96586      -     -    1s
     0     0 -577.94349    0   29          - -577.94349      -     -    1s
     0     0 -577.93318    0   29          - -577.93318      -     -    1s
     0     0 -577.91426    0   29          - -577.91426      -     -    1s
     0     0 -577.90695    0   29          - -577.90695      -     -    1s
     0     0 -577.90028    0   28          - -577.90028      -     -    1s
     0     0 -577.89846    0   29          - -577.89846      -     -    1s
     0     0 -577.85242    0   28          - -577.85242      -     -    2s
     0     0 -577.84497    0   27          - -577.84497      -     -    2s
     0     0 -577.83727    0   27          - -577.83727      -     -    2s
     0     0 -577.83354    0   27          - -577.83354      -     -    2s
     0     0 -577.82935    0   28          - -577.82935      -     -    2s
     0     0 -577.82692    0   28          - -577.82692      -     -    2s
     0     0 -577.82651    0   28          - -577.82651      -     -    2s
     0     0 -577.62000    0   25          - -577.62000      -     -    2s
     0     0 -577.53123    0   28          - -577.53123      -     -    2s
     0     0 -577.48821    0   28          - -577.48821      -     -    2s
     0     0 -577.47564    0   28          - -577.47564      -     -    2s
     0     0 -577.46288    0   29          - -577.46288      -     -    2s
     0     0 -577.45963    0   29          - -577.45963      -     -    2s
     0     0 -577.45620    0   29          - -577.45620      -     -    2s
     0     0 -577.45362    0   28          - -577.45362      -     -    2s
     0     0 -577.45056    0   30          - -577.45056      -     -    2s
     0     0 -577.44969    0   29          - -577.44969      -     -    2s
     0     0 -577.44928    0   28          - -577.44928      -     -    2s
     0     0 -577.35569    0   27          - -577.35569      -     -    3s
     0     0 -577.30588    0   25          - -577.30588      -     -    3s
     0     0 -577.28191    0   27          - -577.28191      -     -    3s
     0     0 -577.26891    0   25          - -577.26891      -     -    3s
     0     0 -577.25793    0   26          - -577.25793      -     -    3s
     0     0 -577.25343    0   25          - -577.25343      -     -    3s
     0     0 -577.25133    0   25          - -577.25133      -     -    3s
     0     0 -577.24686    0   25          - -577.24686      -     -    3s
     0     0 -577.24412    0   27          - -577.24412      -     -    3s
     0     0 -577.24317    0   28          - -577.24317      -     -    3s
     0     0 -577.23905    0   28          - -577.23905      -     -    3s
     0     0 -577.23551    0   26          - -577.23551      -     -    3s
     0     0 -577.23178    0   27          - -577.23178      -     -    3s
     0     0 -577.23081    0   26          - -577.23081      -     -    3s
     0     0 -577.23003    0   28          - -577.23003      -     -    3s
     0     0 -577.18147    0   26          - -577.18147      -     -    3s
     0     0 -577.14400    0   26          - -577.14400      -     -    3s
     0     0 -577.13320    0   27          - -577.13320      -     -    3s
     0     0 -577.12973    0   27          - -577.12973      -     -    3s
     0     0 -577.12564    0   27          - -577.12564      -     -    3s
     0     0 -577.12258    0   27          - -577.12258      -     -    3s
     0     0 -577.11970    0   28          - -577.11970      -     -    3s
     0     0 -577.11648    0   28          - -577.11648      -     -    3s
     0     0 -577.11554    0   28          - -577.11554      -     -    3s
     0     0 -577.08859    0   27          - -577.08859      -     -    4s
     0     0 -577.07141    0   27          - -577.07141      -     -    4s
     0     0 -577.06086    0   28          - -577.06086      -     -    4s
     0     0 -577.05691    0   29          - -577.05691      -     -    4s
     0     0 -577.05413    0   29          - -577.05413      -     -    4s
     0     0 -577.05269    0   29          - -577.05269      -     -    4s
     0     0 -577.05047    0   29          - -577.05047      -     -    4s
     0     0 -577.04821    0   29          - -577.04821      -     -    4s
     0     0 -577.04610    0   28          - -577.04610      -     -    4s
     0     0 -577.04549    0   29          - -577.04549      -     -    4s
     0     0 -577.03234    0   26          - -577.03234      -     -    4s
     0     0 -577.01583    0   27          - -577.01583      -     -    4s
     0     0 -577.01113    0   28          - -577.01113      -     -    4s
     0     0 -577.00737    0   28          - -577.00737      -     -    4s
     0     0 -577.00558    0   28          - -577.00558      -     -    4s
     0     0 -577.00418    0   28          - -577.00418      -     -    4s
     0     0 -577.00395    0   28          - -577.00395      -     -    4s
     0     0 -576.97504    0   28          - -576.97504      -     -    5s
     0     0 -576.96153    0   30          - -576.96153      -     -    5s
     0     0 -576.95401    0   30          - -576.95401      -     -    5s
     0     0 -576.94947    0   30          - -576.94947      -     -    5s
     0     0 -576.94627    0   30          - -576.94627      -     -    5s
     0     0 -576.94333    0   29          - -576.94333      -     -    5s
     0     0 -576.94185    0   29          - -576.94185      -     -    5s
     0     0 -576.94028    0   29          - -576.94028      -     -    5s
     0     0 -576.93916    0   30          - -576.93916      -     -    5s
     0     0 -576.93898    0   30          - -576.93898      -     -    5s
     0     0 -576.91661    0   29          - -576.91661      -     -    5s
     0     0 -576.90667    0   30          - -576.90667      -     -    5s
     0     0 -576.89038    0   29          - -576.89038      -     -    5s
     0     0 -576.88511    0   30          - -576.88511      -     -    5s
     0     0 -576.88261    0   31          - -576.88261      -     -    5s
     0     0 -576.88155    0   30          - -576.88155      -     -    5s
     0     0 -576.88077    0   31          - -576.88077      -     -    5s
     0     0 -576.86853    0   30          - -576.86853      -     -    6s
     0     0 -576.85873    0   30          - -576.85873      -     -    6s
     0     0 -576.85300    0   28          - -576.85300      -     -    6s
     0     0 -576.84862    0   28          - -576.84862      -     -    6s
     0     0 -576.84674    0   30          - -576.84674      -     -    6s
     0     0 -576.84236    0   30          - -576.84236      -     -    6s
     0     0 -576.84118    0   29          - -576.84118      -     -    6s
     0     0 -576.84011    0   30          - -576.84011      -     -    6s
     0     0 -576.82924    0   31          - -576.82924      -     -    6s
     0     0 -576.82249    0   30          - -576.82249      -     -    6s
     0     0 -576.81302    0   28          - -576.81302      -     -    6s
     0     0 -576.80519    0   29          - -576.80519      -     -    6s
     0     0 -576.80084    0   30          - -576.80084      -     -    6s
     0     0 -576.79920    0   28          - -576.79920      -     -    6s
     0     0 -576.79750    0   29          - -576.79750      -     -    6s
     0     0 -576.79479    0   29          - -576.79479      -     -    6s
     0     0 -576.79235    0   27          - -576.79235      -     -    6s
     0     0 -576.79110    0   28          - -576.79110      -     -    6s
     0     0 -576.78870    0   29          - -576.78870      -     -    6s
     0     0 -576.78707    0   28          - -576.78707      -     -    6s
     0     0 -576.78638    0   29          - -576.78638      -     -    6s
     0     0 -576.77211    0   29          - -576.77211      -     -    7s
     0     0 -576.76227    0   28          - -576.76227      -     -    7s
     0     0 -576.75621    0   29          - -576.75621      -     -    7s
     0     0 -576.75277    0   28          - -576.75277      -     -    7s
     0     0 -576.75047    0   29          - -576.75047      -     -    7s
     0     0 -576.74973    0   29          - -576.74973      -     -    7s
     0     0 -576.73738    0   29          - -576.73738      -     -    7s
     0     0 -576.72909    0   30          - -576.72909      -     -    7s
     0     0 -576.72426    0   28          - -576.72426      -     -    7s
     0     0 -576.71990    0   31          - -576.71990      -     -    7s
     0     0 -576.71661    0   31          - -576.71661      -     -    7s
     0     0 -576.71317    0   30          - -576.71317      -     -    7s
     0     0 -576.71003    0   32          - -576.71003      -     -    7s
     0     0 -576.70829    0   32          - -576.70829      -     -    7s
     0     0 -576.70762    0   31          - -576.70762      -     -    7s
     0     0 -576.69625    0   30          - -576.69625      -     -    8s
     0     0 -576.68256    0   32          - -576.68256      -     -    8s
     0     0 -576.67342    0   30          - -576.67342      -     -    8s
     0     0 -576.66904    0   29          - -576.66904      -     -    8s
     0     0 -576.66733    0   30          - -576.66733      -     -    8s
     0     0 -576.66387    0   31          - -576.66387      -     -    8s
     0     0 -576.66179    0   30          - -576.66179      -     -    8s
     0     0 -576.65890    0   32          - -576.65890      -     -    8s
     0     0 -576.65660    0   31          - -576.65660      -     -    8s
     0     0 -576.65570    0   30          - -576.65570      -     -    8s
     0     0 -576.64730    0   31          - -576.64730      -     -    8s
     0     0 -576.63767    0   31          - -576.63767      -     -    8s
     0     0 -576.62966    0   32          - -576.62966      -     -    8s
     0     0 -576.62693    0   31          - -576.62693      -     -    8s
     0     0 -576.62256    0   31          - -576.62256      -     -    8s
     0     0 -576.62006    0   32          - -576.62006      -     -    8s
     0     0 -576.61783    0   32          - -576.61783      -     -    8s
     0     0 -576.61652    0   33          - -576.61652      -     -    8s
     0     0 -576.61458    0   32          - -576.61458      -     -    8s
     0     0 -576.61344    0   32          - -576.61344      -     -    8s
     0     0 -576.60417    0   30          - -576.60417      -     -    9s
     0     0 -576.59274    0   30          - -576.59274      -     -    9s
     0     0 -576.58484    0   30          - -576.58484      -     -    9s
     0     0 -576.58177    0   31          - -576.58177      -     -    9s
     0     0 -576.57906    0   29          - -576.57906      -     -    9s
     0     0 -576.57761    0   31          - -576.57761      -     -    9s
     0     0 -576.57593    0   30          - -576.57593      -     -    9s
     0     0 -576.57390    0   29          - -576.57390      -     -    9s
     0     0 -576.57324    0   30          - -576.57324      -     -    9s
     0     0 -576.55286    0   30          - -576.55286      -     -    9s
     0     0 -576.54520    0   30          - -576.54520      -     -    9s
     0     0 -576.54095    0   29          - -576.54095      -     -    9s
     0     0 -576.53590    0   29          - -576.53590      -     -    9s
     0     0 -576.53104    0   29          - -576.53104      -     -    9s
     0     0 -576.52806    0   28          - -576.52806      -     -    9s
     0     0 -576.52580    0   29          - -576.52580      -     -    9s
     0     0 -576.52508    0   29          - -576.52508      -     -    9s
     0     0 -576.52032    0   30          - -576.52032      -     -   10s
     0     0 -576.51750    0   31          - -576.51750      -     -   10s
     0     0 -576.51523    0   33          - -576.51523      -     -   10s
     0     0 -576.51452    0   33          - -576.51452      -     -   10s
     0     0 -576.50014    0   32          - -576.50014      -     -   10s
     0     0 -576.49631    0   32          - -576.49631      -     -   10s
     0     0 -576.49474    0   32          - -576.49474      -     -   10s
     0     0 -576.49087    0   31          - -576.49087      -     -   10s
     0     0 -576.48777    0   31          - -576.48777      -     -   10s
     0     0 -576.48588    0   32          - -576.48588      -     -   10s
     0     0 -576.48485    0   33          - -576.48485      -     -   10s
     0     0 -576.47041    0   29          - -576.47041      -     -   10s
     0     0 -576.45814    0   30          - -576.45814      -     -   10s
     0     0 -576.45038    0   29          - -576.45038      -     -   10s
     0     0 -576.44632    0   28          - -576.44632      -     -   10s
     0     0 -576.44265    0   29          - -576.44265      -     -   10s
     0     0 -576.44003    0   27          - -576.44003      -     -   11s
     0     0 -576.43914    0   32          - -576.43914      -     -   11s
     0     0 -576.43643    0   31          - -576.43643      -     -   11s
     0     0 -576.43200    0   29          - -576.43200      -     -   11s
     0     0 -576.43024    0   31          - -576.43024      -     -   11s
     0     0 -576.42714    0   31          - -576.42714      -     -   11s
     0     0 -576.42565    0   29          - -576.42565      -     -   11s
     0     0 -576.42481    0   30          - -576.42481      -     -   11s
     0     0 -576.41847    0   31          - -576.41847      -     -   11s
     0     0 -576.41505    0   31          - -576.41505      -     -   11s
     0     0 -576.41101    0   29          - -576.41101      -     -   11s
     0     0 -576.40840    0   30          - -576.40840      -     -   11s
     0     0 -576.40355    0   30          - -576.40355      -     -   11s
     0     0 -576.40193    0   29          - -576.40193      -     -   11s
     0     0 -576.40004    0   30          - -576.40004      -     -   11s
     0     0 -576.39928    0   31          - -576.39928      -     -   11s
     0     0 -576.39306    0   29          - -576.39306      -     -   12s
     0     0 -576.39135    0   31          - -576.39135      -     -   12s
     0     0 -576.39001    0   30          - -576.39001      -     -   12s
     0     0 -576.38486    0   29          - -576.38486      -     -   12s
     0     0 -576.38360    0   32          - -576.38360      -     -   12s
     0     0 -576.37407    0   27          - -576.37407      -     -   12s
     0     0 -576.37101    0   29          - -576.37101      -     -   12s
     0     0 -576.36676    0   30          - -576.36676      -     -   12s
     0     0 -576.36548    0   31          - -576.36548      -     -   12s
     0     0 -576.36452    0   28          - -576.36452      -     -   12s
     0     0 -576.35976    0   30          - -576.35976      -     -   12s
     0     0 -576.35629    0   29          - -576.35629      -     -   12s
     0     0 -576.35285    0   28          - -576.35285      -     -   12s
     0     0 -576.35226    0   30          - -576.35226      -     -   12s
     0     0 -576.35119    0   28          - -576.35119      -     -   13s
     0     0 -576.33726    0   31          - -576.33726      -     -   13s
     0     0 -576.33151    0   30          - -576.33151      -     -   13s
     0     0 -576.32938    0   28          - -576.32938      -     -   13s
     0     0 -576.32852    0   29          - -576.32852      -     -   13s
     0     0 -576.32709    0   28          - -576.32709      -     -   13s
     0     0 -576.32479    0   32          - -576.32479      -     -   13s
     0     0 -576.32263    0   31          - -576.32263      -     -   13s
     0     0 -576.32171    0   33          - -576.32171      -     -   13s
     0     0 -576.30153    0   31          - -576.30153      -     -   13s
     0     0 -576.29990    0   29          - -576.29990      -     -   13s
     0     0 -576.29820    0   29          - -576.29820      -     -   13s
     0     0 -576.29787    0   31          - -576.29787      -     -   13s
     0     0 -576.29484    0   32          - -576.29484      -     -   14s
     0     0 -576.29338    0   32          - -576.29338      -     -   14s
     0     0 -576.28979    0   32          - -576.28979      -     -   14s
     0     0 -576.28880    0   33          - -576.28880      -     -   14s
     0     0 -576.28671    0   32          - -576.28671      -     -   14s
     0     0 -576.28671    0   32          - -576.28671      -     -   14s
     0     2 -576.28671    0   32          - -576.28671      -     -   14s
    21    27 -575.55013   11   19          - -576.28000      -  99.0   15s
*   77    75              40    -289.0449928 -576.28000  99.4%  82.1   18s
    91    79 -556.53071   39    2 -289.04499 -576.26908  99.4%  82.2   26s
*   92    79              40    -337.4149915 -576.26908  70.8%  83.5   27s
*   96    80              40    -381.8399898 -576.26908  50.9%  83.0   29s
*  101    82              40    -384.7849899 -576.26908  49.8%  84.1   32s
*  106    81              40    -388.0649899 -576.22814  48.5%  88.9   35s
*  109    82              40    -388.4899891 -576.22814  48.3%  88.8   37s
   175   145 -563.89452   31    5 -388.48999 -576.22814  48.3%  83.1   42s
   190   150 -562.82275   36    2 -388.48999 -576.22814  48.3%  83.4   46s
   215   155     cutoff   38      -388.48999 -576.22814  48.3%  79.3   57s
   233   151 -553.26987   37    2 -388.48999 -575.91453  48.2%  80.2   61s
*  245   158              40    -409.7549887 -575.91453  40.6%  79.7   68s
   274   152     cutoff   41      -409.75499 -575.78843  40.5%  82.1   73s
   290   154     cutoff   41      -409.75499 -575.64005  40.5%  83.9   76s
   350   205 -564.60858   36    3 -409.75499 -575.53268  40.5%  83.0   82s
   361   209 -552.31795   39    2 -409.75499 -575.53268  40.5%  82.1   86s
   385   210 -572.00040   13    8 -409.75499 -575.46283  40.4%  82.4   96s
   394   212     cutoff   40      -409.75499 -575.46283  40.4%  83.8  100s
   414   229 -540.87703   19    - -409.75499 -575.46283  40.4%  84.8  106s
   437   248 -547.97710   22    2 -409.75499 -575.46283  40.4%  83.4  110s
   448   256 -526.22779   24    - -409.75499 -575.46283  40.4%  83.1  117s
   469   258 -467.79528   27    - -409.75499 -575.05732  40.3%  82.2  124s
   490   277 -502.71037   30    2 -409.75499 -574.46754  40.2%  81.2  131s
   505   277 -482.79278   41    - -409.75499 -574.45923  40.2%  80.6  136s
   524   284     cutoff   41      -409.75499 -574.37070  40.2%  83.6  140s
   551   307 -573.87325   14   15 -409.75499 -574.37070  40.2%  82.4  147s
   566   310 -573.61244   17   15 -409.75499 -574.37070  40.2%  82.2  153s
   578   313 -573.57371   19   15 -409.75499 -574.37070  40.2%  82.8  157s
   600   327 -573.15494   24   11 -409.75499 -574.37070  40.2%  82.5  167s
   613   341 -572.98398   27    9 -409.75499 -574.37070  40.2%  81.9  172s
   629   355 -572.63097   32    6 -409.75499 -574.37070  40.2%  80.6  177s
   648   364 -556.98635   36    2 -409.75499 -574.16466  40.1%  79.6  182s
   680   369     cutoff   40      -409.75499 -574.13526  40.1%  79.0  196s
   698   379     cutoff   40      -409.75499 -574.10674  40.1%  79.1  206s
   726   390 -573.48676   11   12 -409.75499 -574.10674  40.1%  77.4  219s
   742   393 -573.14097   13   14 -409.75499 -574.10674  40.1%  76.8  223s
   763   430 -572.72478   18   10 -409.75499 -574.10674  40.1%  76.2  229s
   797   437 -572.48203   21    8 -409.75499 -574.10674  40.1%  74.5  234s
   809   466 -572.02083   25    8 -409.75499 -574.10674  40.1%  74.2  239s
   837   469 -570.44815   28    6 -409.75499 -574.10674  40.1%  72.8  242s
   853   481 -569.91646   31    3 -409.75499 -574.10674  40.1%  72.6  249s
   863   481 -485.73506   40    - -409.75499 -574.10674  40.1%  72.3  250s
*  865   472              40    -431.6599887 -574.10674  33.0%  72.4  251s
   873   470 -432.86999   40    - -431.65999 -573.95723  33.0%  72.3  257s
   886   472     cutoff   40      -431.65999 -573.88067  32.9%  72.8  264s
   899   476     cutoff   40      -431.65999 -573.82874  32.9%  73.2  268s
   908   505 -569.76430   17    3 -431.65999 -573.82874  32.9%  73.3  272s
   946   524 -465.92751   39    2 -431.65999 -573.74150  32.9%  71.7  280s
   980   529     cutoff   40      -431.65999 -573.70086  32.9%  71.1  291s
  1001   535 -573.29715    7   11 -431.65999 -573.69036  32.9%  71.2  299s
  1003   569 -567.35506    9    2 -431.65999 -573.69036  32.9%  71.2  302s
  1046   575 -528.64144   39    2 -431.65999 -573.64844  32.9%  69.6  309s
  1060   578     cutoff   40      -431.65999 -573.62893  32.9%  69.6  314s
  1070   588     cutoff   40      -431.65999 -573.61004  32.9%  69.7  318s
  1099   608 -548.90304   15    5 -431.65999 -573.61004  32.9%  69.6  325s
  1117   629 -546.88572   22    2 -431.65999 -573.57461  32.9%  69.5  334s
  1155   633     cutoff   41      -431.65999 -573.53544  32.9%  69.0  345s
  1174   640     cutoff   41      -431.65999 -573.52075  32.9%  69.1  352s
  1211   669 -572.12464   23   11 -431.65999 -573.50376  32.9%  68.1  356s
  1226   678 -571.62783   27    9 -431.65999 -573.50376  32.9%  68.2  365s
  1250   688     cutoff   40      -431.65999 -573.50376  32.9%  68.2  371s
  1255   708 -557.54954   38    2 -431.65999 -573.44211  32.8%  68.2  375s
  1296   711     cutoff   40      -431.65999 -573.43147  32.8%  67.4  388s
  1316   741 -569.49782   10    3 -431.65999 -573.39684  32.8%  67.7  396s
  1355   741 -462.50346   39    2 -431.65999 -573.37656  32.8%  67.0  404s
  1364   745     cutoff   40      -431.65999 -573.23991  32.8%  67.3  409s
  1377   758 -546.46142   24    3 -431.65999 -573.23991  32.8%  67.4  417s
  1401   788 -520.52012   27    2 -431.65999 -573.16102  32.8%  67.3  430s
  1450   801 -569.39097    9   32 -431.65999 -573.16102  32.8%  66.2  469s
  1452   802 -551.81277   10   32 -431.65999 -573.16102  32.8%  66.1  584s
  1453   803 -558.78342   15   28 -431.65999 -573.16102  32.8%  66.1  598s
  1454   804 -570.36107   16   25 -431.65999 -573.16102  32.8%  66.0  603s
  1455   804 -450.18562   30   28 -431.65999 -573.16102  32.8%  66.0  606s
  1457   806 -571.92551   18   28 -431.65999 -573.16102  32.8%  65.9  611s
  1459   807 -529.78258   38   29 -431.65999 -573.16102  32.8%  65.8  617s
  1461   808 -568.05662   19   27 -431.65999 -573.16102  32.8%  65.7  620s
  1464   810 -539.22766    9   25 -431.65999 -573.16102  32.8%  65.6  626s
  1466   812 -552.24746    9   25 -431.65999 -573.16102  32.8%  65.5  630s
  1469   814 -572.10246    7   28 -431.65999 -573.16102  32.8%  65.4  636s
  1471   815 -501.41219   22   29 -431.65999 -573.16102  32.8%  65.3  640s
  1472   816 -477.04053   25   29 -431.65999 -573.16102  32.8%  65.2  647s
  1473   816 -563.09337   35   26 -431.65999 -573.16102  32.8%  65.2  657s
  1474   817 -570.98823   12   24 -431.65999 -573.16102  32.8%  65.1  663s
  1475   818 -561.08602   12   27 -431.65999 -573.16102  32.8%  65.1  673s
  1476   818 -569.39097    9   28 -431.65999 -573.16102  32.8%  65.0  681s
  1477   819 -563.49067   33   24 -431.65999 -573.16102  32.8%  65.0  690s
  1478   820 -567.30316   14   28 -431.65999 -573.16102  32.8%  65.0  698s
  1479   820 -495.89748   10   27 -431.65999 -573.16102  32.8%  64.9  707s
  1481   822 -542.75512   13   28 -431.65999 -573.16102  32.8%  64.8  717s
  1482   822 -568.94786   29   29 -431.65999 -573.16102  32.8%  64.8  727s
  1483   823 -569.20714   12   28 -431.65999 -573.16102  32.8%  64.7  735s
  1484   824 -572.85827   16   29 -431.65999 -573.16102  32.8%  64.7  745s
  1485   824 -553.20310   24   31 -431.65999 -573.16102  32.8%  64.6  753s
  1486   825 -557.05819   36   26 -431.65999 -573.16102  32.8%  64.6  762s
  1487   826 -569.57664   30   30 -431.65999 -573.16102  32.8%  64.6  771s
  1488   826 -562.65018   38   29 -431.65999 -573.16102  32.8%  64.5  799s
  1489   827 -467.53881   35   29 -431.65999 -573.16102  32.8%  64.5  807s
  1491   831 -573.16102   12   24 -431.65999 -573.16102  32.8%  68.4  844s
  1493   833 -573.16102   13   21 -431.65999 -573.16102  32.8%  68.6  870s
  1495   832 -518.98149   13    - -431.65999 -573.16102  32.8%  68.9  881s
  1497   832     cutoff   13      -431.65999 -573.16102  32.8%  69.1  894s
  1499   834 -573.16102   14   23 -431.65999 -573.16102  32.8%  69.1  918s
  1501   834 -439.43852   14    - -431.65999 -573.16102  32.8%  69.6  941s
  1504   836     cutoff   15      -431.65999 -573.16102  32.8%  69.8  947s
  1508   834     cutoff   16      -431.65999 -573.16102  32.8%  70.0  950s
  1511   836 -573.16102   17   21 -431.65999 -573.16102  32.8%  70.4  955s
  1520   836     cutoff   19      -431.65999 -573.16102  32.8%  71.1  965s
  1526   836 -573.16102   20   21 -431.65999 -573.16102  32.8%  71.1  972s
  1530   836     cutoff   20      -431.65999 -573.16102  32.8%  71.8  979s
  1537   836     cutoff   21      -431.65999 -573.16102  32.8%  71.9  984s
  1545   839 -573.16102   23   18 -431.65999 -573.16102  32.8%  72.2  990s
  1552   839     cutoff   23      -431.65999 -573.16102  32.8%  72.3  997s
  1561   841     cutoff   24      -431.65999 -573.16102  32.8%  72.5 1005s
  1571   840     cutoff   25      -431.65999 -573.16102  32.8%  72.6 1014s
  1582   843     cutoff   26      -431.65999 -573.16102  32.8%  72.7 1025s
  1593   840     cutoff   27      -431.65999 -573.16102  32.8%  72.9 1032s
  1603   849     cutoff   28      -431.65999 -573.16102  32.8%  73.1 1042s
  1617   843     cutoff   29      -431.65999 -573.16102  32.8%  73.1 1052s
  1626   843 -573.16102   31   14 -431.65999 -573.16102  32.8%  73.5 1060s
  1633   853 -573.16102   32   13 -431.65999 -573.16102  32.8%  74.0 1066s
  1649   859     cutoff   32      -431.65999 -573.16102  32.8%  73.9 1071s
  1664   863 -573.03425   34   10 -431.65999 -573.03425  32.8%  74.2 1077s
  1678   862     cutoff   36      -431.65999 -572.86150  32.7%  74.6 1083s
* 1681   818              46    -432.9849886 -572.86150  32.3%  74.7 1084s
  1700   823     cutoff   37      -432.98499 -572.86150  32.3%  74.8 1098s
  1719   826     cutoff   39      -432.98499 -572.86150  32.3%  75.2 1108s
  1732   825 -564.70052   43    5 -432.98499 -572.86150  32.3%  75.4 1111s
  1743   825     cutoff   46      -432.98499 -572.77424  32.3%  76.0 1117s
  1762   832 -572.42578   20   19 -432.98499 -572.42578  32.2%  76.6 1124s
  1773   843 -571.18731   22   13 -432.98499 -572.42521  32.2%  76.7 1129s
  1794   848 -570.21220   33   10 -432.98499 -572.42521  32.2%  76.8 1137s
  1816   853 -567.72320   43    6 -432.98499 -572.40521  32.2%  76.8 1147s
  1852   860     cutoff   49      -432.98499 -572.11259  32.1%  77.2 1170s
  1876   862 -500.97746   53    2 -432.98499 -572.10186  32.1%  77.1 1183s
  1895   864     cutoff   54      -432.98499 -571.87111  32.1%  77.2 1194s
  1910   874 -465.89455   54    2 -432.98499 -571.71165  32.0%  77.3 1204s
  1929   885     cutoff   55      -432.98499 -571.61412  32.0%  77.4 1215s
  1958   888 -553.63281   24    8 -432.98499 -571.58613  32.0%  77.5 1232s
  1972   886     cutoff   52      -432.98499 -571.58613  32.0%  77.6 1236s
  1983   902     cutoff   35      -432.98499 -571.44643  32.0%  77.7 1250s
  2010   897     cutoff   53      -432.98499 -571.42679  32.0%  77.3 1255s
  2018   902 -523.08757   53    2 -432.98499 -571.41896  32.0%  77.3 1268s
  2034   901 -484.80014   53    2 -432.98499 -571.39835  32.0%  77.4 1274s
  2058   902     cutoff   54      -432.98499 -571.30227  31.9%  77.2 1296s
  2070   919 -487.93816   54    2 -432.98499 -571.24782  31.9%  77.6 1308s
  2092   915 -553.51911   19    8 -432.98499 -571.24782  31.9%  77.5 1312s
  2103   914     cutoff   55      -432.98499 -571.19241  31.9%  77.7 1333s
  2108   914 -534.24910   22    - -432.98499 -571.18561  31.9%  78.1 1335s
* 2110   874              22    -436.4099882 -571.18561  30.9%  78.1 1337s
  2117   909 -455.11999   18    - -436.40999 -571.18561  30.9%  79.1 1353s
  2140   908 -513.44856   24    2 -436.40999 -571.18561  30.9%  78.9 1360s
  2183   919 -533.18226   34    5 -436.40999 -571.03262  30.8%  78.4 1379s
  2238   948 -551.67588   25    7 -436.40999 -570.95104  30.8%  78.3 1404s
  2275   947 -566.37395   35    6 -436.40999 -570.95104  30.8%  78.0 1424s
  2309   955 -550.93196   39    2 -436.40999 -570.89078  30.8%  77.9 1441s
  2339   952     cutoff   52      -436.40999 -570.88719  30.8%  78.2 1447s
  2370   952     cutoff   54      -436.40999 -570.82517  30.8%  78.2 1469s
  2392   951 -520.30492   52    2 -436.40999 -570.82213  30.8%  78.2 1477s
  2405   962     cutoff   55      -436.40999 -570.76722  30.8%  78.4 1495s
  2442   990 -551.19252   37    4 -436.40999 -570.65830  30.8%  78.5 1526s
  2491   991 -506.87109   39    2 -436.40999 -570.62998  30.8%  77.8 1542s
  2524   998     cutoff   26      -436.40999 -570.61987  30.8%  77.5 1564s
  2554   997     cutoff   54      -436.40999 -570.60157  30.7%  77.4 1574s
  2569  1010 -524.68217   41    2 -436.40999 -570.56437  30.7%  77.5 1590s
  2599  1008     cutoff   55      -436.40999 -570.55461  30.7%  77.4 1599s
  2610  1017 -517.63140   50    2 -436.40999 -570.49348  30.7%  77.5 1614s
  2660  1050     cutoff   52      -436.40999 -570.41577  30.7%  77.5 1652s
  2730  1058 -482.38255   53    2 -436.40999 -570.38212  30.7%  77.4 1682s
  2797  1092     cutoff   54      -436.40999 -570.26175  30.7%  77.0 1723s
  2851  1100 -561.47242   41    2 -436.40999 -570.16867  30.6%  76.7 1746s
  2881  1094 -465.41852   54    2 -436.40999 -570.13376  30.6%  76.8 1750s
* 2900  1050              34    -442.2699881 -570.13376  28.9%  76.8 1754s
  2903  1065 -548.51385   42    4 -442.26999 -570.09047  28.9%  77.1 1768s
  2947  1086 -472.50575   54    2 -442.26999 -569.91802  28.9%  77.3 1795s
  3018  1100     cutoff   55      -442.26999 -569.78601  28.8%  76.9 1836s
  3038  1100     cutoff   52      -442.26999 -569.68708  28.8%  77.1 1843s
  3079  1133     cutoff   31      -442.26999 -569.64663  28.8%  77.0 1874s
  3161  1142 -514.31891   52    2 -442.26999 -569.58302  28.8%  76.7 1918s
  3215  1141     cutoff   53      -442.26999 -569.51281  28.8%  76.4 1938s
  3245  1171     cutoff   24      -442.26999 -569.47440  28.8%  76.6 1972s
  3276  1166     cutoff   53      -442.26999 -569.39411  28.7%  76.6 1979s
  3309  1176     cutoff   53      -442.26999 -569.36723  28.7%  76.5 2009s
  3335  1178 -503.72447   53    2 -442.26999 -569.33741  28.7%  76.5 2020s
  3370  1197     cutoff   54      -442.26999 -569.30533  28.7%  76.4 2050s
  3400  1198     cutoff   54      -442.26999 -569.23732  28.7%  76.5 2062s
  3433  1216 -464.49667   54    2 -442.26999 -569.18324  28.7%  76.5 2093s
  3516  1237 -470.46378   45    2 -442.26999 -569.00968  28.7%  76.4 2147s
* 3553  1211              18    -444.9049891 -569.00968  27.9%  76.2 2157s
  3598  1236 -454.92078   55    2 -444.90499 -568.82911  27.9%  76.4 2206s
  3644  1255 -477.61668   54    2 -444.90499 -568.73254  27.8%  76.3 2226s
  3703  1299 -472.51950   46    2 -444.90499 -568.65753  27.8%  76.1 2280s
  3735  1309     cutoff   55      -444.90499 -568.62413  27.8%  76.0 2290s
  3762  1328     cutoff   27      -444.90499 -568.58231  27.8%  76.1 2325s
  3819  1349 -545.89769   38    4 -444.90499 -568.53445  27.8%  76.1 2350s
  3861  1384 -538.58879   52    2 -444.90499 -568.51844  27.8%  76.1 2399s
  3900  1395 -520.77402   51    2 -444.90499 -568.38085  27.8%  76.1 2412s
  3953  1423 -566.64198   30    2 -444.90499 -568.35564  27.7%  75.9 2464s
  4019  1469     cutoff   53      -444.90499 -568.13890  27.7%  76.1 2521s
  4081  1490 -489.76593   53    2 -444.90499 -568.10973  27.7%  75.9 2539s
  4128  1523 -501.57893   53    2 -444.90499 -568.10795  27.7%  75.7 2585s
  4173  1535 -501.96767   42    3 -444.90499 -568.08522  27.7%  75.8 2600s
  4211  1574     cutoff   54      -444.90499 -568.01506  27.7%  75.7 2649s
  4257  1586     cutoff   55      -444.90499 -567.96693  27.7%  75.7 2663s
  4303  1630     cutoff   32      -444.90499 -567.93809  27.7%  75.7 2716s
  4331  1636 -523.94229   46    2 -444.90499 -567.91284  27.6%  75.8 2723s
  4384  1658 -566.91180   38    5 -444.90499 -567.89895  27.6%  75.7 2774s
  4480  1721 -564.07769   41    2 -444.90499 -567.74667  27.6%  75.8 2865s
  4595  1758     cutoff   53      -444.90499 -567.66282  27.6%  75.7 2943s
  4644  1777 -475.86966   54    2 -444.90499 -567.59195  27.6%  75.8 2965s
  4670  1797     cutoff   53      -444.90499 -567.58740  27.6%  76.0 3023s
  4788  1855     cutoff   54      -444.90499 -567.47820  27.6%  76.1 3105s
  4892  1909     cutoff   51      -444.90499 -567.39656  27.5%  76.1 3186s
  4916  1917     cutoff   54      -444.90499 -567.37101  27.5%  76.3 3195s
  4958  1936 -547.80545   26    9 -444.90499 -567.32224  27.5%  76.3 3263s
  4999  1953     cutoff   53      -444.90499 -567.31850  27.5%  76.3 3282s
  5040  1992 -519.01945   41    2 -444.90499 -567.27481  27.5%  76.3 3342s
  5096  2006 -528.83004   52    2 -444.90499 -567.24445  27.5%  76.1 3359s
  5147  2060 -512.37063   53    2 -444.90499 -567.19272  27.5%  76.4 3421s
  5198  2066     cutoff   53      -444.90499 -567.09363  27.5%  76.3 3428s
  5251  2100     cutoff   54      -444.90499 -567.07726  27.5%  76.4 3500s
  5321  2125     cutoff   54      -444.90499 -566.97615  27.4%  76.4 3526s
  5368  2182 -476.27554   54    2 -444.90499 -566.97051  27.4%  76.5 3600s
  5473  2212     cutoff   55      -444.90499 -566.93619  27.4%  76.3 3695s
* 5490  2076              52    -478.1523080 -566.93619  18.6%  76.3 3700s
  5551  2116     cutoff   54      -478.15231 -566.81772  18.5%  76.6 3779s
  5590  2123     cutoff   40      -478.15231 -566.75372  18.5%  76.6 3786s
  5647  2158 -565.33530   21    2 -478.15231 -566.73827  18.5%  76.5 3871s
  5741  2219 -542.81403   46    3 -478.15231 -566.69436  18.5%  76.6 3976s
  5919  2292     cutoff   53      -478.15231 -566.55359  18.5%  76.1 4106s
  6043  2361 -508.36472   52    2 -478.15231 -566.39302  18.5%  76.1 4214s
  6085  2370 -504.51636   53    2 -478.15231 -566.35047  18.4%  76.1 4224s
  6136  2409     cutoff   28      -478.15231 -566.33049  18.4%  76.1 4305s
  6220  2441 -529.06156   51    2 -478.15231 -566.27071  18.4%  76.3 4415s
  6336  2499 -493.99539   53    2 -478.15231 -566.11778  18.4%  76.2 4548s
  6439  2546 -516.61528   53    - -478.15231 -565.74334  18.3%  76.2 4649s
  6507  2564 -486.75050   53    2 -478.15231 -565.60543  18.3%  76.0 4669s
  6526  2617     cutoff   53      -478.15231 -565.58459  18.3%  76.2 4753s
  6663  2659     cutoff   53      -478.15231 -565.55752  18.3%  76.2 4898s
  6755  2681     cutoff   54      -478.15231 -565.38390  18.2%  76.2 4924s
  6829  2718     cutoff   54      -478.15231 -565.29403  18.2%  76.1 5060s
  6906  2746 -482.03324   53    2 -478.15231 -565.18659  18.2%  76.0 5095s
  6971  2805     cutoff   53      -478.15231 -565.16677  18.2%  75.9 5210s
  7103  2876 -491.32861   53    2 -478.15231 -565.09985  18.2%  75.7 5342s
  7264  2946 -543.94252   40    2 -478.15231 -564.93977  18.2%  75.4 5473s
  7378  2998     cutoff   53      -478.15231 -564.89707  18.1%  75.4 5595s
  7412  3006 -485.86936   45    3 -478.15231 -564.78060  18.1%  75.4 5606s
  7473  3044 -492.75345   53    2 -478.15231 -564.77102  18.1%  75.4 5699s
  7583  3100 -543.37833   48    2 -478.15231 -564.64244  18.1%  75.4 5831s
  7725  3154     cutoff   52      -478.15231 -564.49621  18.1%  75.4 5982s
  7803  3175     cutoff   53      -478.15231 -564.39689  18.0%  75.3 6008s
  7880  3222     cutoff   53      -478.15231 -564.37220  18.0%  75.2 6120s
  7921  3231     cutoff   53      -478.15231 -564.36225  18.0%  75.1 6132s
  7955  3274 -533.52078   47    3 -478.15231 -564.30373  18.0%  75.2 6256s
  8046  3307     cutoff   54      -478.15231 -564.27356  18.0%  75.0 6296s
  8128  3352     cutoff   53      -478.15231 -564.10009  18.0%  74.8 6432s
  8181  3362     cutoff   52      -478.15231 -563.98828  18.0%  74.7 6443s
  8236  3428     cutoff   53      -478.15231 -563.97137  17.9%  74.7 6562s
  8341  3485 -493.27234   52    2 -478.15231 -563.86221  17.9%  74.6 6685s
  8517  3545     cutoff   53      -478.15231 -563.65015  17.9%  74.3 6844s
  8675  3605 -510.77900   53    2 -478.15231 -563.40595  17.8%  74.2 7005s
  8827  3665     cutoff   54      -478.15231 -563.19145  17.8%  74.1 7138s
  8886  3681     cutoff   53      -478.15231 -563.03842  17.8%  74.0 7157s

Cutting planes:
  MIR: 640
  Flow cover: 202
  Lazy constraints: 371585

Explored 8948 nodes (675518 simplex iterations) in 7179.81 seconds
Thread count was 4 (of 4 available processors)

Solution count 10: -478.152 -444.905 -442.27 ... -384.785

Time limit reached
Best objective -4.781523080133e+02, best bound -5.630384182104e+02, gap 17.7529%

User-callback calls 204275, time in user-callback 2565.46 sec
